PARAMETER_FILE = even/even_uncomplete_graph_new/nei/par/random144.par
PROBLEM_FILE = even/even_uncomplete_graph_new/nei/mat/random144.tsp
Successes/Runs = 0/10
Cost.min = 914, Cost.avg = 914.00, Cost.max = 914
Gap.min = 0.0000%, Gap.avg = 0.0000%, Gap.max = 0.0000%
Trials.min = 1000, Trials.avg = 1000.0, Trials.max = 1000
Time.min = 0.29 sec., Time.avg = 0.30 sec., Time.max = 0.34 sec.
Time.total = 3.17 sec.
